# Solution for model GasLib-40
# Objective value = 3.8316340136669972e+01
loadshed[innode_1] 0
loadshed[innode_2] 0
loadshed[innode_3] 0
loadshed[innode_4] 0
loadshed[innode_5] 0
loadshed[innode_6] 0
loadshed[innode_7] 0
loadshed[innode_8] 0
loadshed[source_1] -1.8487069744081386e-01
loadshed[source_2] -1.7270050492234068e-02
loadshed[source_3] 4.4451074484400133e-01
loadshed[sink_1] 0
loadshed[sink_2] 0
loadshed[sink_3] 0
loadshed[sink_4] 0
loadshed[sink_5] 0
loadshed[sink_6] 0
loadshed[sink_7] 0
loadshed[sink_8] 0
loadshed[sink_9] 0
loadshed[sink_10] 0
loadshed[sink_11] 0
loadshed[sink_12] 1
loadshed[sink_13] 0
loadshed[sink_14] 0
loadshed[sink_15] 0
loadshed[sink_16] 0
loadshed[sink_17] 0
loadshed[sink_18] 0
loadshed[sink_19] 0
loadshed[sink_20] 0
loadshed[sink_21] 1
loadshed[sink_22] 0
loadshed[sink_23] 0
loadshed[sink_24] 3.4290997014032931e-01
loadshed[sink_25] 0
loadshed[sink_26] 0
loadshed[sink_27] 0
loadshed[sink_28] 0
loadshed[sink_29] 0
flow[source_1,sink_3] 1.8731653768916755e+02
flow[innode_1,sink_16] 1.6354166666666970e+01
flow[innode_6,sink_13] 2.6661716016497259e+01
flow[sink_13,sink_14] 1.0307549349830593e+01
flow[sink_14,sink_10] -6.0466173168360751e+00
flow[sink_25,sink_26] 1.3011938837191565e+02
flow[sink_26,sink_9] 3.2708333333334551e+01
flow[sink_9,sink_18] 1.6354166666667879e+01
flow[sink_26,sink_4] 8.1056888371914425e+01
flow[sink_4,sink_20] -1.5577358064223807e+01
flow[sink_18,sink_6] 0
flow[sink_25,innode_8] -1.5460820435583119e+02
flow[sink_6,sink_7] -4.9062500000000313e+01
flow[sink_6,sink_22] 3.2708333333333641e+01
flow[sink_7,sink_24] 1.0746159863330030e+01
flow[sink_22,sink_1] 1.6354166666666970e+01
flow[sink_24,sink_21] 0
flow[sink_21,sink_12] 0
flow[sink_7,sink_5] -76.162826529997
flow[sink_5,sink_17] -9.2516993196663677e+01
flow[sink_17,sink_4] -8.0280079769471556e+01
flow[sink_17,sink_8] -2.8591080093858782e+01
flow[sink_3,sink_23] 16.3541666666697
flow[sink_8,sink_20] -4.4945246760525450e+01
flow[sink_25,sink_20] 7.6876771491415923e+01
flow[sink_25,sink_15] -9.5403838190663421e+01
flow[sink_15,sink_29] -6.2358200747078975e+01
flow[sink_29,sink_28] 1.6354166666667879e+01
flow[sink_29,sink_2] 6.5753970776917782e+01
flow[sink_2,sink_15] 4.9399804110251111e+01
flow[sink_29,innode_7] -1.6082050485733131e+02
flow[innode_4,sink_19] 87.8174506501827
flow[sink_19,innode_3] 0
flow[innode_4,innode_5] 0
flow[sink_27,innode_5] 0
flow[sink_27,sink_19] -1.6354166666679703e+01
flow[sink_10,sink_11] 3.2708333333333641e+01
flow[sink_10,innode_2] -5.5109117316836318e+01
flow[sink_10,innode_3] 0
flow[innode_6,sink_25] -2.6661716016497259e+01
flow[sink_11,innode_1] 1.6354166666666970e+01
flow[sink_19,innode_2] 5.5109117316836318e+01
flow[source_3,innode_4] 87.8174506501827
flow[source_2,innode_7] 1.6082050485733131e+02
flow[sink_3,innode_8] 1.5460820435583119e+02
pressure[innode_1] 7.4391095548114222e+01
pressure[innode_2] 7.7455541314021517e+01
pressure[innode_3] 7.7455541314021517e+01
pressure[innode_4] 81.01325
pressure[innode_5] 7.7104411316878014e+01
pressure[innode_6] 7.4422228169347818e+01
pressure[innode_7] 81.01325
pressure[innode_8] 8.0387122372016179e+01
pressure[source_1] 81.01325
pressure[source_2] 81.01325
pressure[source_3] 81.01325
pressure[sink_1] 1.0542213546739424e+01
pressure[sink_2] 7.5046309221034065e+01
pressure[sink_3] 8.0387122372016179e+01
pressure[sink_4] 5.4952213488995483e+01
pressure[sink_5] 4.4992326294469450e+01
pressure[sink_6] 1.2643291157126797e+01
pressure[sink_7] 1.3316802334826928e+01
pressure[sink_8] 5.2962989285327460e+01
pressure[sink_9] 6.3300317893308339e+01
pressure[sink_10] 7.4542796855717768e+01
pressure[sink_11] 7.4391095548114222e+01
pressure[sink_12] 1.01325
pressure[sink_13] 7.4275246584535523e+01
pressure[sink_14] 7.4256800346964951e+01
pressure[sink_15] 7.4885029748155560e+01
pressure[sink_16] 7.3369445713296543e+01
pressure[sink_17] 5.1884173555586607e+01
pressure[sink_18] 6.2708575399508632e+01
pressure[sink_19] 7.7455541314021517e+01
pressure[sink_20] 5.6095040907348860e+01
pressure[sink_21] 1.01325
pressure[sink_22] 1.1605982689094434e+01
pressure[sink_23] 8.0222404360356393e+01
pressure[sink_24] 1.01325
pressure[sink_25] 7.4422228169347818e+01
pressure[sink_26] 6.5257996061192941e+01
pressure[sink_27] 7.7104411316878014e+01
pressure[sink_28] 7.6416649235053171e+01
pressure[sink_29] 7.6711931508670347e+01
interdiction[source_1,sink_3] 0
interdiction[innode_1,sink_16] 0
interdiction[innode_6,sink_13] 0
interdiction[sink_13,sink_14] 0
interdiction[sink_14,sink_10] 0
interdiction[sink_25,sink_26] 0
interdiction[sink_26,sink_9] 0
interdiction[sink_9,sink_18] 0
interdiction[sink_26,sink_4] 0
interdiction[sink_4,sink_20] 0
interdiction[sink_18,sink_6] 1
interdiction[sink_25,innode_8] 0
interdiction[sink_6,sink_7] 0
interdiction[sink_6,sink_22] 0
interdiction[sink_7,sink_24] 0
interdiction[sink_22,sink_1] 0
interdiction[sink_24,sink_21] 0
interdiction[sink_21,sink_12] 0
interdiction[sink_7,sink_5] 0
interdiction[sink_5,sink_17] 0
interdiction[sink_17,sink_4] 0
interdiction[sink_17,sink_8] 0
interdiction[sink_3,sink_23] 0
interdiction[sink_8,sink_20] 0
interdiction[sink_25,sink_20] 0
interdiction[sink_25,sink_15] 0
interdiction[sink_15,sink_29] 0
interdiction[sink_29,sink_28] 0
interdiction[sink_29,sink_2] 0
interdiction[sink_2,sink_15] 0
interdiction[sink_29,innode_7] 0
interdiction[innode_4,sink_19] 0
interdiction[sink_19,innode_3] 0
interdiction[innode_4,innode_5] 1
interdiction[sink_27,innode_5] 0
interdiction[sink_27,sink_19] 0
interdiction[sink_10,sink_11] 0
interdiction[sink_10,innode_2] 0
interdiction[sink_10,innode_3] 1
interdiction[innode_6,sink_25] 0
interdiction[sink_11,innode_1] 0
interdiction[sink_19,innode_2] 0
interdiction[source_3,innode_4] 0
interdiction[source_2,innode_7] 0
interdiction[sink_3,innode_8] 0
WCcheckFlow[source_1,sink_3] 39
WCcheckFlow[innode_1,sink_16] 1
WCcheckFlow[innode_6,sink_13] 13
WCcheckFlow[sink_13,sink_14] 12
WCcheckFlow[sink_14,sink_10] 11
WCcheckFlow[sink_25,sink_26] 15
WCcheckFlow[sink_26,sink_9] 2
WCcheckFlow[sink_9,sink_18] 1
WCcheckFlow[sink_26,sink_4] 12
WCcheckFlow[sink_4,sink_20] 1
WCcheckFlow[sink_18,sink_6] 0
WCcheckFlow[sink_25,innode_8] -36
WCcheckFlow[sink_6,sink_7] -3
WCcheckFlow[sink_6,sink_22] 2
WCcheckFlow[sink_7,sink_24] 3
WCcheckFlow[sink_22,sink_1] 1
WCcheckFlow[sink_24,sink_21] 2
WCcheckFlow[sink_21,sink_12] 1
WCcheckFlow[sink_7,sink_5] -7
WCcheckFlow[sink_5,sink_17] -8
WCcheckFlow[sink_17,sink_4] -10
WCcheckFlow[sink_17,sink_8] 1
WCcheckFlow[sink_3,sink_23] 1
WCcheckFlow[sink_8,sink_20] 0
WCcheckFlow[sink_25,sink_20] 0
WCcheckFlow[sink_25,sink_15] 6
WCcheckFlow[sink_15,sink_29] 5
WCcheckFlow[sink_29,sink_28] 1
WCcheckFlow[sink_29,sink_2] 1
WCcheckFlow[sink_2,sink_15] 0
WCcheckFlow[sink_29,innode_7] 2
WCcheckFlow[innode_4,sink_19] -2
WCcheckFlow[sink_19,innode_3] 1
WCcheckFlow[innode_4,innode_5] 0
WCcheckFlow[sink_27,innode_5] 1
WCcheckFlow[sink_27,sink_19] -2
WCcheckFlow[sink_10,sink_11] 3
WCcheckFlow[sink_10,innode_2] 7
WCcheckFlow[sink_10,innode_3] 0
WCcheckFlow[innode_6,sink_25] -14
WCcheckFlow[sink_11,innode_1] 2
WCcheckFlow[sink_19,innode_2] -6
WCcheckFlow[source_3,innode_4] -1
WCcheckFlow[source_2,innode_7] -1
WCcheckFlow[sink_3,innode_8] 37
